
n_res = 8;
rcap = [36, 29, 33, 33, 599, 642, 777, 734];
rtype = [1, 1, 1, 1, 2, 2, 2, 2];
n_tasks = 50;
modes =  [{1, 2, 3}, {4, 5, 6}, {7, 8, 9}, {10, 11, 12}, {13, 14, 15}, {16, 17, 18}, {19, 20, 21}, {22, 23, 24}, {25, 26, 27}, {28, 29, 30}, {31, 32, 33}, {34, 35, 36}, {37, 38, 39}, {40, 41, 42}, {43, 44, 45}, {46, 47, 48}, {49, 50, 51}, {52, 53, 54}, {55, 56, 57}, {58, 59, 60}, {61, 62, 63}, {64, 65, 66}, {67, 68, 69}, {70, 71, 72}, {73, 74, 75}, {76, 77, 78}, {79, 80, 81}, {82, 83, 84}, {85, 86, 87}, {88, 89, 90}, {91, 92, 93}, {94, 95, 96}, {97, 98, 99}, {100, 101, 102}, {103, 104, 105}, {106, 107, 108}, {109, 110, 111}, {112, 113, 114}, {115, 116, 117}, {118, 119, 120}, {121, 122, 123}, {124, 125, 126}, {127, 128, 129}, {130, 131, 132}, {133, 134, 135}, {136, 137, 138}, {139, 140, 141}, {142, 143, 144}, {145, 146, 147}, {148, 149, 150}];
succ =  [{49, 47, 44, 43, 42, 41, 33, 28, 25, 22, 20, 18, 12}, {48, 47, 46, 44, 42, 29, 28, 27, 26, 20, 19, 12}, {47, 46, 42, 33, 28, 22, 20, 19, 9}, {47, 46, 45, 44, 43, 42, 39, 27, 26, 23, 20, 19}, {46, 43, 42, 33, 27, 26, 20, 19, 12}, {48, 44, 42, 29, 28, 27, 23, 22, 20}, {44, 43, 40, 39, 38, 33, 32, 27, 19}, {49, 42, 41, 28, 25, 18}, {44, 41, 38, 29, 27, 23}, {39, 27, 26, 20, 19}, {45, 41, 39, 37, 33, 32, 28, 26}, {45, 40, 39, 38, 37, 23}, {45, 44, 38, 37, 20}, {50, 42, 18}, {42, 41, 39, 37, 36, 34, 26}, {39, 36, 28, 27, 26}, {46, 38, 37, 20}, {37, 34, 32, 26}, {41, 37, 36, 35, 34}, {40, 35, 34, 32}, {43, 42, 40, 32}, {37, 34, 26}, {35, 34, 32}, {34, 32}, {27}, {38, 35}, {37, 34}, {35, 34}, {43, 39}, {37, 34}, {35, 34}, {36}, {35}, {}, {}, {}, {}, {}, {}, {}, {}, {}, {}, {}, {}, {}, {}, {}, {}, {}];
n_opt = 150;
dur = [5, 8, 25, 3, 20, 23, 3, 5, 24, 3, 4, 28, 14, 21, 22, 21, 25, 30, 2, 9, 22, 7, 8, 12, 6, 7, 17, 8, 9, 30, 4, 29, 30, 17, 18, 23, 6, 10, 22, 13, 14, 21, 14, 16, 30, 2, 7, 23, 15, 18, 26, 9, 21, 26, 9, 23, 27, 2, 5, 10, 3, 8, 19, 11, 17, 26, 6, 12, 13, 10, 16, 20, 1, 11, 26, 4, 18, 19, 1, 17, 26, 12, 13, 19, 4, 12, 26, 13, 19, 29, 2, 4, 20, 10, 18, 21, 22, 23, 29, 20, 24, 29, 4, 11, 24, 16, 17, 22, 3, 7, 29, 20, 26, 29, 2, 8, 9, 17, 18, 28, 15, 26, 28, 8, 16, 30, 12, 20, 23, 10, 11, 19, 7, 12, 25, 11, 18, 25, 5, 17, 19, 6, 10, 16, 17, 21, 25, 16, 24, 27];
rreq = [|3, 2, 1, 5, 4, 4, 2, 1, 1, 3, 3, 3, 4, 3, 3, 4, 2, 2, 5, 3, 3, 4, 4, 4, 5, 3, 2, 5, 4, 2, 3, 3, 2, 5, 2, 1, 3, 3, 2, 2, 2, 2, 2, 2, 2, 3, 2, 2, 2, 2, 2, 4, 4, 4, 4, 3, 2, 4, 4, 4, 5, 3, 3, 4, 2, 2, 2, 2, 1, 5, 4, 4, 2, 1, 1, 2, 1, 1, 3, 3, 3, 4, 2, 1, 5, 4, 3, 4, 2, 2, 4, 2, 1, 3, 3, 3, 5, 4, 3, 4, 3, 3, 4, 4, 4, 4, 2, 2, 4, 3, 3, 4, 3, 1, 5, 4, 2, 1, 1, 1, 3, 3, 3, 3, 2, 2, 2, 2, 2, 5, 2, 1, 1, 1, 1, 3, 3, 3, 3, 2, 2, 5, 4, 2, 3, 2, 1, 4, 4, 3
 |2, 2, 2, 1, 1, 1, 5, 5, 5, 4, 3, 2, 1, 1, 1, 1, 1, 1, 3, 3, 3, 5, 5, 5, 3, 2, 1, 2, 2, 2, 1, 1, 1, 3, 3, 2, 1, 1, 1, 5, 3, 3, 4, 4, 4, 4, 3, 1, 4, 3, 3, 4, 2, 2, 3, 2, 2, 4, 4, 4, 5, 4, 3, 4, 3, 3, 3, 3, 3, 3, 2, 2, 5, 5, 5, 3, 3, 3, 3, 2, 2, 4, 3, 3, 3, 2, 2, 1, 1, 1, 2, 2, 1, 4, 3, 3, 1, 1, 1, 4, 4, 3, 4, 4, 4, 4, 3, 2, 5, 4, 4, 2, 1, 1, 4, 3, 1, 5, 5, 5, 3, 2, 2, 4, 4, 4, 5, 4, 2, 3, 3, 1, 1, 1, 1, 1, 1, 1, 4, 3, 1, 5, 3, 3, 1, 1, 1, 4, 3, 3
 |5, 4, 2, 4, 2, 2, 2, 2, 2, 3, 3, 2, 4, 3, 1, 3, 1, 1, 2, 1, 1, 4, 4, 4, 5, 3, 3, 4, 4, 4, 2, 2, 2, 5, 4, 4, 4, 3, 3, 5, 5, 5, 4, 4, 4, 4, 2, 2, 3, 2, 1, 4, 3, 3, 4, 2, 2, 4, 3, 1, 1, 1, 1, 4, 3, 1, 5, 4, 2, 2, 2, 1, 4, 4, 3, 5, 4, 4, 2, 2, 1, 5, 4, 4, 3, 2, 1, 3, 3, 3, 2, 2, 2, 4, 2, 2, 5, 4, 3, 4, 3, 3, 3, 3, 3, 2, 2, 2, 4, 3, 3, 3, 2, 1, 4, 4, 4, 4, 4, 2, 2, 2, 2, 5, 3, 3, 3, 3, 2, 4, 3, 3, 4, 4, 3, 1, 1, 1, 4, 4, 4, 5, 4, 3, 2, 1, 1, 4, 4, 2
 |3, 2, 1, 5, 3, 3, 2, 1, 1, 2, 2, 2, 3, 3, 2, 4, 4, 4, 3, 1, 1, 4, 2, 2, 4, 2, 1, 2, 2, 2, 3, 3, 3, 3, 3, 3, 3, 1, 1, 5, 5, 5, 1, 1, 1, 3, 1, 1, 4, 4, 4, 1, 1, 1, 4, 4, 4, 4, 4, 4, 5, 5, 5, 3, 3, 2, 2, 2, 2, 4, 2, 1, 4, 4, 2, 1, 1, 1, 4, 4, 4, 5, 5, 5, 3, 2, 2, 2, 2, 2, 3, 3, 3, 4, 4, 3, 3, 3, 1, 4, 3, 2, 4, 3, 3, 1, 1, 1, 1, 1, 1, 3, 2, 1, 5, 4, 3, 3, 3, 2, 2, 2, 2, 5, 3, 2, 2, 1, 1, 3, 3, 2, 5, 5, 5, 5, 5, 5, 4, 4, 3, 3, 3, 3, 4, 4, 4, 3, 3, 3
 |20, 18, 13, 23, 14, 4, 20, 11, 7, 28, 18, 12, 19, 14, 11, 25, 14, 1, 19, 19, 17, 5, 5, 5, 25, 24, 23, 21, 19, 14, 28, 16, 12, 16, 15, 4, 17, 13, 4, 21, 16, 9, 21, 18, 7, 29, 24, 14, 16, 10, 5, 27, 15, 2, 16, 14, 9, 3, 2, 1, 10, 8, 7, 12, 11, 11, 19, 11, 5, 24, 24, 22, 21, 16, 13, 21, 17, 12, 29, 27, 26, 14, 13, 5, 18, 16, 15, 16, 11, 9, 15, 15, 14, 13, 8, 4, 12, 11, 9, 21, 18, 15, 23, 15, 12, 9, 6, 4, 11, 10, 10, 21, 18, 17, 13, 11, 9, 14, 12, 10, 9, 8, 7, 11, 11, 3, 14, 14, 14, 21, 19, 19, 21, 20, 16, 5, 3, 2, 20, 17, 7, 14, 10, 3, 20, 17, 16, 22, 18, 12
 |10, 8, 7, 17, 16, 14, 18, 17, 16, 25, 23, 21, 16, 15, 15, 17, 8, 2, 15, 11, 4, 25, 20, 19, 22, 19, 17, 14, 10, 9, 5, 3, 1, 29, 29, 29, 25, 12, 2, 3, 1, 1, 17, 16, 16, 24, 20, 14, 25, 25, 24, 17, 16, 11, 16, 7, 4, 20, 15, 9, 11, 10, 8, 14, 10, 5, 19, 13, 9, 28, 21, 17, 18, 13, 8, 24, 21, 19, 21, 20, 19, 24, 23, 23, 30, 26, 25, 5, 5, 5, 24, 15, 13, 25, 24, 19, 9, 6, 5, 21, 17, 6, 18, 15, 14, 9, 9, 9, 7, 5, 2, 14, 13, 13, 14, 10, 5, 10, 5, 4, 14, 13, 11, 10, 7, 6, 6, 4, 4, 21, 17, 10, 14, 11, 8, 28, 28, 27, 11, 9, 5, 21, 21, 19, 11, 7, 4, 25, 20, 11
 |20, 19, 18, 19, 16, 13, 24, 22, 22, 19, 18, 11, 10, 9, 8, 23, 20, 18, 22, 21, 18, 22, 20, 15, 24, 20, 18, 11, 11, 11, 5, 4, 2, 21, 21, 15, 4, 4, 4, 10, 9, 7, 29, 27, 26, 27, 23, 19, 27, 25, 25, 29, 25, 22, 19, 14, 14, 29, 22, 20, 26, 24, 23, 11, 10, 10, 20, 18, 18, 11, 6, 4, 20, 20, 18, 11, 10, 5, 27, 23, 16, 25, 22, 11, 17, 9, 7, 11, 6, 5, 10, 10, 7, 24, 14, 5, 12, 12, 8, 25, 22, 19, 28, 24, 21, 5, 4, 4, 18, 15, 9, 26, 25, 25, 24, 21, 20, 25, 20, 14, 27, 24, 23, 26, 25, 23, 5, 2, 1, 14, 12, 12, 29, 25, 23, 10, 6, 5, 25, 23, 17, 30, 25, 20, 16, 9, 7, 25, 25, 25
 |16, 15, 9, 15, 12, 7, 17, 17, 17, 9, 5, 5, 18, 13, 10, 25, 16, 9, 16, 13, 8, 21, 18, 15, 28, 22, 21, 26, 26, 22, 19, 18, 18, 24, 20, 1, 8, 7, 6, 13, 11, 6, 15, 8, 7, 18, 12, 8, 28, 28, 27, 13, 11, 11, 26, 25, 23, 9, 8, 7, 16, 11, 5, 26, 21, 16, 24, 21, 14, 21, 21, 21, 23, 22, 8, 20, 20, 18, 12, 7, 6, 22, 21, 20, 15, 13, 13, 18, 14, 12, 23, 20, 13, 27, 26, 26, 14, 13, 11, 18, 10, 1, 16, 13, 12, 22, 15, 13, 26, 17, 12, 15, 11, 11, 29, 28, 26, 22, 18, 15, 23, 23, 22, 16, 15, 15, 21, 18, 17, 22, 17, 13, 27, 24, 23, 17, 14, 12, 19, 14, 10, 14, 9, 9, 5, 3, 3, 25, 24, 24|];